p cnf 15 38
-15 -14 -6 0
15 -12 -5 0
-15 11 9 0
-15 -10 -4 0
-15 -9 -8 0
15 9 -4 0
15 -7 4 0
14 -13 -4 0
14 9 -2 0
-14 8 -3 0
-13 12 9 0
-13 -12 7 0
-13 -11 -8 0
13 -10 6 0
13 9 2 0
13 -9 -1 0
-13 7 1 0
-13 6 -2 0
12 -8 -4 0
-12 -6 4 0
-11 10 5 0
-10 8 -2 0
10 -6 5 0
10 -4 -2 0
-10 3 2 0
10 -3 2 0
9 8 -3 0
9 7 -2 0
9 -6 3 0
-8 7 6 0
8 -7 -6 0
-8 -7 2 0
8 -6 2 0
7 6 5 0
-6 -5 -2 0
-6 -5 1 0
-6 4 -2 0
-6 3 2 0
